p cnf 90 313
-4 2 0
-4 -3 0
-2 3 4 0
5 1 0
5 -4 0
-1 4 -5 0
-6 1 0
-6 5 0
-1 -5 6 0
8 -7 0
8 -4 0
7 4 -8 0
6 -8 -9 0
-6 8 -9 0
6 8 9 0
-6 -8 9 0
11 12 -13 0
-11 -12 -13 0
11 -12 13 0
-11 12 13 0
13 2 -14 0
-13 -2 -14 0
13 -2 14 0
-13 2 14 0
-10 14 -15 0
10 -14 -15 0
-10 -14 15 0
10 14 15 0
12 16 -17 0
-12 -16 -17 0
12 -16 17 0
-12 16 17 0
15 17 -18 0
-15 -17 -18 0
15 -17 18 0
-15 17 18 0
-20 4 0
-20 -4 0
-19 -20 -21 0
19 20 -21 0
-19 20 21 0
19 -20 21 0
22 -18 0
22 -21 0
18 21 -22 0
-23 9 0
-23 -22 0
-9 22 23 0
2 21 -24 0
-2 -21 -24 0
2 -21 24 0
-2 21 24 0
25 -3 -26 0
-25 3 -26 0
25 3 26 0
-25 -3 26 0
27 -11 0
27 -26 0
11 26 -27 0
28 -17 0
28 -3 0
17 3 -28 0
-29 27 0
-29 -28 0
-27 28 29 0
30 -24 0
30 -29 0
24 29 -30 0
31 -23 0
31 30 0
23 -30 -31 0
-16 -12 -32 0
16 12 -32 0
-16 12 32 0
16 -12 32 0
-17 -12 -33 0
17 12 -33 0
-17 12 33 0
17 -12 33 0
-32 -33 -34 0
32 33 -34 0
-32 33 34 0
32 -33 34 0
-35 -2 0
-35 16 0
2 -16 35 0
-36 16 0
-36 -17 0
-16 17 36 0
36 16 -37 0
-36 -16 -37 0
36 -16 37 0
-36 16 37 0
-38 -35 0
-38 -37 0
35 37 38 0
-39 34 0
-39 -38 0
-34 38 39 0
40 -31 0
40 -39 0
31 39 -40 0
7 -15 -41 0
-7 15 -41 0
7 15 41 0
-7 -15 41 0
19 42 -43 0
-19 -42 -43 0
19 -42 43 0
-19 42 43 0
-2 12 -44 0
2 -12 -44 0
-2 -12 44 0
2 12 44 0
43 -44 -45 0
-43 44 -45 0
43 44 45 0
-43 -44 45 0
46 -45 0
46 -21 0
45 21 -46 0
-10 19 -47 0
10 -19 -47 0
-10 -19 47 0
10 19 47 0
-19 2 -48 0
19 -2 -48 0
-19 -2 48 0
19 2 48 0
-49 -47 0
-49 48 0
47 -48 49 0
50 -46 0
50 -49 0
46 49 -50 0
51 -6 0
51 17 0
6 -17 -51 0
51 18 -52 0
-51 -18 -52 0
51 -18 52 0
-51 18 52 0
-53 -50 0
-53 52 0
50 -52 53 0
51 -2 -54 0
-51 2 -54 0
51 2 54 0
-51 -2 54 0
-55 -53 0
-55 54 0
53 -54 55 0
-41 -55 -56 0
41 55 -56 0
-41 55 56 0
41 -55 56 0
57 -18 0
57 -36 0
18 36 -57 0
58 -56 0
58 57 0
56 -57 -58 0
59 40 0
59 -58 0
-40 58 -59 0
2 -14 -60 0
-2 14 -60 0
2 14 60 0
-2 -14 60 0
-61 -10 0
-61 -43 0
10 43 61 0
-60 -61 -62 0
60 61 -62 0
-60 61 62 0
60 -61 62 0
26 -27 -63 0
-26 27 -63 0
26 27 63 0
-26 -27 63 0
64 -17 0
64 48 0
17 -48 -64 0
-63 -64 -65 0
63 64 -65 0
-63 64 65 0
63 -64 65 0
66 -62 0
66 -65 0
62 65 -66 0
-67 -25 0
-67 17 0
25 -17 67 0
-68 -8 0
-68 -44 0
8 44 68 0
-69 67 0
-69 68 0
-67 -68 69 0
70 -66 0
70 -69 0
66 69 -70 0
-72 71 0
-72 48 0
-71 -48 72 0
-73 -48 0
-73 10 0
48 -10 73 0
74 -72 0
74 73 0
72 -73 -74 0
70 -74 -75 0
-70 74 -75 0
70 74 75 0
-70 -74 75 0
-11 -19 -77 0
11 19 -77 0
-11 19 77 0
11 -19 77 0
78 -76 0
78 -77 0
76 77 -78 0
79 75 0
79 78 0
-75 -78 -79 0
80 45 0
80 -47 0
-45 47 -80 0
82 81 0
82 71 0
-81 -71 -82 0
-80 82 -83 0
80 -82 -83 0
-80 -82 83 0
80 82 83 0
84 81 0
84 -36 0
-81 36 -84 0
44 -47 -85 0
-44 47 -85 0
44 47 85 0
-44 -47 85 0
85 -14 -86 0
-85 14 -86 0
85 14 86 0
-85 -14 86 0
-84 86 -87 0
84 -86 -87 0
-84 -86 87 0
84 86 87 0
83 87 -88 0
-83 -87 -88 0
83 -87 88 0
-83 87 88 0
89 79 0
89 88 0
-79 -88 -89 0
90 59 0
90 -89 0
-59 89 -90 0
-41 36 -75 0
62 -3 -90 44 0
65 -63 -69 0
4 -48 -45 0
-12 51 -31 70 19 -29 0
-31 -40 -44 20 60 -89 0
-46 -19 -4 -50 -28 38 0
-34 -49 68 58 88 0
-41 -73 67 -87 0
-43 -78 -30 0
-16 50 70 -51 83 0
-78 -23 -12 0
-49 -63 0
-26 -82 -28 0
-19 -26 -14 68 64 0
-6 76 45 1 -90 0
-64 -65 40 0
79 -83 -12 -88 -67 0
41 -39 -19 -72 0
-50 30 -43 2 0
-19 -18 63 0
56 16 43 -82 68 50 0
-4 28 37 -25 51 0
49 -41 -70 -76 59 -78 0
44 -43 17 66 -1 24 0
-56 -43 76 -6 11 71 0
68 -48 1 36 0
85 74 -40 -49 0
81 60 -57 -70 0
-53 -52 75 -21 55 0
-90 13 -43 3 62 77 0
82 -90 0
-3 -56 0
26 9 0
11 -2 -15 57 0
-87 89 -56 0
66 -48 -87 50 52 -45 0
23 39 -18 -44 0
-60 68 70 -14 0
-35 -46 -83 -24 26 0
-9 -2 82 -14 -33 77 0
-71 -19 3 -68 0
9 -45 23 20 -63 0
83 76 0
-17 -33 76 78 -26 0
11 -86 43 52 0
-84 -44 -25 63 -70 -31 0
-68 16 -28 0
87 62 29 0
46 -7 22 32 0
-62 -34 -2 56 -53 74 0
-88 56 28 -77 -86 71 0
90 0
